Route #1: 34 46 52 27 45
Route #2: 4 30 2 28 62
Route #3: 1 43 41 42 64 22 61
Route #4: 21 47 36 60 20 37 48
Route #5: 29 5 15 57 13 54 19 8 7
Route #6: 35 53 14 59 11
Route #7: 58 38 10 31 39 12
Route #8: 26 40 32 44 3 17
Route #9: 9 50 25 55 18 24 49
Route #10: 51 16 56 23 63 33 6
Cost 825